Optimal - objective value -2132.00000000
     33 x_33                   1                       0
     85 x_85                   1                       0
    250 x_250                  1                       0
    310 x_310                  1                      25
    361 x_361                  1                       0
    380 x_380                  1                       0
    421 x_421                  1                       0
    442 x_442                  1                      25
    445 x_445                  1                       0
    482 x_482                  1                       0
    486 x_486                  1                       0
    561 x_561                  1                       0
    569 x_569                  1                       0
    629 x_629                  1                 22.4375
    685 x_685                  1                       0
    740 x_740                  1                       0
    770 x_770                  1                       0
    781 x_781                  1                61.78125
    803 x_803                  1                -20.5625
    861 x_861                  1                       0
    938 x_938                  1                27.21875
    959 x_959                  1                      -5
    980 x_980                  1                       0
    993 x_993                  1                 12.0625
   1041 x_1041                 1                       0
   1044 x_1044                 1               -64.40625
   1059 x_1059                 1                      43
   1085 x_1085                 1                       0
   1087 x_1087                 1                       0
   1127 x_1127                 1                11.34375
   1210 x_1210                 1                       0
   1230 x_1230                 1               -16.46875
   1348 x_1348                 1                       0
   1385 x_1385                 1                       0
   1394 x_1394                 1                       0
